	Costo	Nv	Tiempo
1	1110,45	5	18,4999
2	1531,79	10	39,4549
3	1964,75	8	72,426
4	2604,51	12	163,496
5	3071,08	16	284,824
6	975,81	8	18,031
7	1408,45	14	38,89
8	2000,41	14	73,156
9	2338,6	20	163,2969
10	2651,94	24	294,1779
11	2226,48	7	107,0349
12	1559,39	10	70,346
13	2227,15	12	106,3159
14	1391,56	11	76,5029
